Route #1: 15 8 17 42 21
Route #2: 1 28 29 19 32
Route #3: 20 36 43 16 11 30 6
Route #4: 31 14 38 22 13 3
Route #5: 46 45 41 35 10 23
Route #6: 39 5 24 12 2
Route #7: 44 27 37 7 40 48 34
Route #8: 25 4 18 26 47 49 33 9
Cost 1330